
  18    0


   0  11 2 3 5 6 7 8 13 14 15 16 17 
   3   4 12 10 9 4 
   8   2 10 9 
   3   1 11 
   4   1 10 
   2   1 10 
   9   1 9 
   6   1 9 
  10   1 18
   5   1 18
   4   1 18
   7   1 18
   8   1 18
   6   1 18
   3   1 18
   9   1 18
   7   1 18
   0   0 
